
(set-option :produce-models true)
(declare-fun certora_certoraAssert_0L1t1t_1 () (_ BitVec 256))
(declare-fun a_1 () (_ BitVec 256))
(declare-fun certora_certoraAssert_0L1t1_1 () Bool)
(declare-fun certora_certoraAssert_0L1t2t1_1 () (_ BitVec 256))
(declare-fun b_1 () (_ BitVec 256))
(declare-fun certora_certoraAssert_0L1t2t2_1 () (_ BitVec 256))
(declare-fun c_1 () (_ BitVec 256))
(declare-fun certora_certoraAssert_0L1t2_1 () Bool)
(declare-fun certoraAssert_0L1_1 () Bool)
(declare-fun certora_certoraAssert_0R1t1t_1 () (_ BitVec 256))
(declare-fun certora_certoraAssert_0R1t1_1 () Bool)
(declare-fun certora_certoraAssert_0R1t2t1_1 () (_ BitVec 256))
(declare-fun certora_certoraAssert_0R1t2t2_1 () (_ BitVec 256))
(declare-fun certora_certoraAssert_0R1t2_1 () Bool)
(declare-fun certoraAssert_0R1_1 () Bool)
(declare-fun certoraAssert_01_1 () Bool)
(declare-fun certoraAssert_0_1 () Bool)
(declare-fun OK_0_0_0_0_0_0_0 () Bool)

(assert (not (=> (= OK_0_0_0_0_0_0_0 (=> (= certora_certoraAssert_0L1t1t_1 a_1) (=> (= certora_certoraAssert_0L1t1_1 (= certora_certoraAssert_0L1t1t_1 (_ bv0 256))) (=> (= certora_certoraAssert_0L1t2t1_1 b_1) (=> (= certora_certoraAssert_0L1t2t2_1 c_1) (=> (= certora_certoraAssert_0L1t2_1 (or (not (= certora_certoraAssert_0L1t2t1_1 (_ bv0 256))) (not (= certora_certoraAssert_0L1t2t2_1 (_ bv0 256))))) (=> (= certoraAssert_0L1_1 (or certora_certoraAssert_0L1t1_1 certora_certoraAssert_0L1t2_1)) (=> (= certora_certoraAssert_0R1t1t_1 a_1) (=> (= certora_certoraAssert_0R1t1_1 (= certora_certoraAssert_0R1t1t_1 (_ bv0 256))) (=> (= certora_certoraAssert_0R1t2t1_1 b_1) (=> (= certora_certoraAssert_0R1t2t2_1 c_1) (=> (= certora_certoraAssert_0R1t2_1 (or (not (= certora_certoraAssert_0R1t2t1_1 (_ bv0 256))) (not (= certora_certoraAssert_0R1t2t2_1 (_ bv0 256))))) (=> (= certoraAssert_0R1_1 (or certora_certoraAssert_0R1t1_1 certora_certoraAssert_0R1t2_1)) (=> (= certoraAssert_01_1 (= certoraAssert_0L1_1 certoraAssert_0R1_1)) (=> (= certoraAssert_0_1 (and certoraAssert_01_1)) (and certoraAssert_0_1 true)))))))))))))))) OK_0_0_0_0_0_0_0)))
(check-sat)
(get-model)
